c FILE: i080-204

c SOURCE: From steinlib

c DESCRIPTION: Steinlib instance with 80 nodes and 120 edges.

p edge 80 120
e 1 27
e 1 30
e 1 37
e 1 40
e 1 58
e 2 11
e 2 23
e 3 36
e 3 53
e 4 11
e 4 59
e 4 64
e 5 58
e 6 64
e 7 35
e 7 70
e 7 73
e 8 29
e 8 60
e 8 72
e 8 76
e 9 20
e 9 43
e 9 68
e 9 79
e 10 38
e 10 62
e 10 77
e 11 22
e 11 32
e 11 80
e 12 56
e 12 58
e 12 63
e 13 46
e 13 51
e 13 58
e 13 69
e 13 71
e 14 24
e 15 21
e 16 68
e 16 78
e 17 75
e 18 21
e 19 56
e 20 25
e 20 27
e 21 26
e 21 41
e 21 51
e 21 53
e 21 63
e 21 64
e 22 24
e 22 47
e 22 62
e 22 75
e 24 36
e 24 53
e 25 28
e 25 39
e 26 55
e 26 59
e 27 55
e 28 55
e 28 72
e 28 80
e 29 37
e 30 35
e 30 47
e 30 49
e 31 37
e 31 76
e 32 41
e 33 51
e 34 58
e 34 77
e 35 46
e 35 58
e 36 59
e 36 80
e 37 53
e 37 67
e 37 76
e 40 63
e 41 75
e 42 77
e 43 44
e 43 71
e 43 77
e 44 45
e 44 58
e 45 53
e 45 75
e 47 67
e 47 78
e 48 68
e 49 54
e 49 70
e 50 65
e 50 74
e 52 57
e 52 66
e 53 80
e 54 67
e 54 69
e 57 80
e 58 59
e 58 78
e 59 65
e 59 70
e 59 74
e 60 80
e 61 69
e 63 74
e 66 80
e 67 68
e 68 71
e 74 75
